NAME          DCAP_2_4_3_500_SS441
ROWS
 N  OBJ
 L  CON1
 L  CON2
 L  CON3
 L  CON4
 L  CON5
 L  CON6
 L  CON7
 L  CON8
 L  CON9
 L  CON10
 L  CON11
 L  CON12
 E  CON13
 E  CON14
 E  CON15
 E  CON16
 E  CON17
 E  CON18
 E  CON19
 E  CON20
 E  CON21
 E  CON22
 E  CON23
 E  CON24
COLUMNS
    x[1,1]    OBJ       6.180167      CON1      1.000000    
    x[1,1]    CON7      -1.000000     CON8      -1.000000   
    x[1,1]    CON9      -1.000000   
    x[1,2]    OBJ       6.563535      CON2      1.000000    
    x[1,2]    CON8      -1.000000     CON9      -1.000000   
    x[1,3]    OBJ       7.443064      CON3      1.000000    
    x[1,3]    CON9      -1.000000   
    x[2,1]    OBJ       6.732585      CON4      1.000000    
    x[2,1]    CON10     -1.000000     CON11     -1.000000   
    x[2,1]    CON12     -1.000000   
    x[2,2]    OBJ       5.039546      CON5      1.000000    
    x[2,2]    CON11     -1.000000     CON12     -1.000000   
    x[2,3]    OBJ       6.054841      CON6      1.000000    
    x[2,3]    CON12     -1.000000   
    MARKER    'MARKER'                'INTORG'
    u[1,1]    OBJ       48.076654     CON1      -1.000000   
    u[1,2]    OBJ       20.066487     CON2      -1.000000   
    u[1,3]    OBJ       32.230043     CON3      -1.000000   
    u[2,1]    OBJ       49.996186     CON4      -1.000000   
    u[2,2]    OBJ       49.466655     CON5      -1.000000   
    u[2,3]    OBJ       27.484319     CON6      -1.000000   
    y[1,1,1]  OBJ       8.526229      CON7      1.392821    
    y[1,1,1]  CON13     1.000000    
    y[1,1,2]  OBJ       8.555036      CON8      0.848891    
    y[1,1,2]  CON14     1.000000    
    y[1,1,3]  OBJ       9.037635      CON9      1.453695    
    y[1,1,3]  CON15     1.000000    
    y[1,2,1]  OBJ       7.229689      CON7      0.748038    
    y[1,2,1]  CON16     1.000000    
    y[1,2,2]  OBJ       7.946497      CON8      0.677308    
    y[1,2,2]  CON17     1.000000    
    y[1,2,3]  OBJ       8.767040      CON9      0.657308    
    y[1,2,3]  CON18     1.000000    
    y[1,3,1]  OBJ       8.660473      CON7      1.209571    
    y[1,3,1]  CON19     1.000000    
    y[1,3,2]  OBJ       6.024769      CON8      0.612430    
    y[1,3,2]  CON20     1.000000    
    y[1,3,3]  OBJ       6.573956      CON9      0.539029    
    y[1,3,3]  CON21     1.000000    
    y[1,4,1]  OBJ       6.776665      CON7      0.587361    
    y[1,4,1]  CON22     1.000000    
    y[1,4,2]  OBJ       7.189412      CON8      0.823310    
    y[1,4,2]  CON23     1.000000    
    y[1,4,3]  OBJ       7.881901      CON9      0.991265    
    y[1,4,3]  CON24     1.000000    
    y[2,1,1]  OBJ       9.433282      CON10     1.392821    
    y[2,1,1]  CON13     1.000000    
    y[2,1,2]  OBJ       5.293784      CON11     0.848891    
    y[2,1,2]  CON14     1.000000    
    y[2,1,3]  OBJ       8.020772      CON12     1.453695    
    y[2,1,3]  CON15     1.000000    
    y[2,2,1]  OBJ       8.078589      CON10     0.748038    
    y[2,2,1]  CON16     1.000000    
    y[2,2,2]  OBJ       6.492764      CON11     0.677308    
    y[2,2,2]  CON17     1.000000    
    y[2,2,3]  OBJ       8.199073      CON12     0.657308    
    y[2,2,3]  CON18     1.000000    
    y[2,3,1]  OBJ       8.008754      CON10     1.209571    
    y[2,3,1]  CON19     1.000000    
    y[2,3,2]  OBJ       9.711344      CON11     0.612430    
    y[2,3,2]  CON20     1.000000    
    y[2,3,3]  OBJ       7.250158      CON12     0.539029    
    y[2,3,3]  CON21     1.000000    
    y[2,4,1]  OBJ       9.434968      CON10     0.587361    
    y[2,4,1]  CON22     1.000000    
    y[2,4,2]  OBJ       9.625993      CON11     0.823310    
    y[2,4,2]  CON23     1.000000    
    y[2,4,3]  OBJ       7.732122      CON12     0.991265    
    y[2,4,3]  CON24     1.000000    
    z[1,1]    OBJ       608.108443    CON13     1.000000    
    z[1,2]    OBJ       537.764878    CON14     1.000000    
    z[1,3]    OBJ       571.793412    CON15     1.000000    
    z[2,1]    OBJ       925.208646    CON16     1.000000    
    z[2,2]    OBJ       886.101222    CON17     1.000000    
    z[2,3]    OBJ       792.904158    CON18     1.000000    
    z[3,1]    OBJ       874.602670    CON19     1.000000    
    z[3,2]    OBJ       823.886932    CON20     1.000000    
    z[3,3]    OBJ       745.777254    CON21     1.000000    
    z[4,1]    OBJ       563.920006    CON22     1.000000    
    z[4,2]    OBJ       947.335795    CON23     1.000000    
    z[4,3]    OBJ       895.271992    CON24     1.000000    
    MARKER    'MARKER'                 'INTEND'
RHS
    RHS       CON1      -0.000000     CON2      -0.000000   
    RHS       CON3      -0.000000     CON4      -0.000000   
    RHS       CON5      -0.000000     CON6      -0.000000   
    RHS       CON7      -0.000000     CON8      -0.000000   
    RHS       CON9      -0.000000     CON10     -0.000000   
    RHS       CON11     -0.000000     CON12     -0.000000   
    RHS       CON13     1.000000      CON14     1.000000    
    RHS       CON15     1.000000      CON16     1.000000    
    RHS       CON17     1.000000      CON18     1.000000    
    RHS       CON19     1.000000      CON20     1.000000    
    RHS       CON21     1.000000      CON22     1.000000    
    RHS       CON23     1.000000      CON24     1.000000    
BOUNDS
 BV BOUND     u[1,1]  
 BV BOUND     u[1,2]  
 BV BOUND     u[1,3]  
 BV BOUND     u[2,1]  
 BV BOUND     u[2,2]  
 BV BOUND     u[2,3]  
 BV BOUND     y[1,1,1]
 BV BOUND     y[1,1,2]
 BV BOUND     y[1,1,3]
 BV BOUND     y[1,2,1]
 BV BOUND     y[1,2,2]
 BV BOUND     y[1,2,3]
 BV BOUND     y[1,3,1]
 BV BOUND     y[1,3,2]
 BV BOUND     y[1,3,3]
 BV BOUND     y[1,4,1]
 BV BOUND     y[1,4,2]
 BV BOUND     y[1,4,3]
 BV BOUND     y[2,1,1]
 BV BOUND     y[2,1,2]
 BV BOUND     y[2,1,3]
 BV BOUND     y[2,2,1]
 BV BOUND     y[2,2,2]
 BV BOUND     y[2,2,3]
 BV BOUND     y[2,3,1]
 BV BOUND     y[2,3,2]
 BV BOUND     y[2,3,3]
 BV BOUND     y[2,4,1]
 BV BOUND     y[2,4,2]
 BV BOUND     y[2,4,3]
 BV BOUND     z[1,1]  
 BV BOUND     z[1,2]  
 BV BOUND     z[1,3]  
 BV BOUND     z[2,1]  
 BV BOUND     z[2,2]  
 BV BOUND     z[2,3]  
 BV BOUND     z[3,1]  
 BV BOUND     z[3,2]  
 BV BOUND     z[3,3]  
 BV BOUND     z[4,1]  
 BV BOUND     z[4,2]  
 BV BOUND     z[4,3]  
ENDATA
